# Objective value = 40
WA1n 0
WA1p 0
WA2n 1
WA2p 0
WB1n 0
WB1p 0
WB2n 1
WB2p 0
WC1n 1
WC1p 0
WD1n 0
WD1p 1
WD2n 0
WD2p 1
WE1n 0
WE1p 1
WE2n 0
WE2p 1
WF1n 4
WF1p 0
WG1n 4
WG1p 0
WH1n 4
WH1p 0
WI1n 4
WI1p 0
WJ1n 4
WJ1p 0
WK1n 0
WK1p 4
WT1n 0
WT1p 3
WT2n 0
WT2p 1
5 7
a 0
b 0
c 0
d 0
e 0
f 1
g 1
h 1
i 1
j 0
k 0
l 0
m 0
n 0
o 1
p 1
q 1
